unsat
(forall ((A (_ BitVec 2))
         (B (_ BitVec 2))
         (C (_ BitVec 6))
         (D (_ BitVec 2))
         (E (_ BitVec 6))
         (F (_ BitVec 2))
         (G (_ BitVec 6))
         (H (_ BitVec 2))
         (I (_ BitVec 6))
         (J (_ BitVec 1))
         (K (_ BitVec 8))
         (L (_ BitVec 2))
         (M (_ BitVec 1))
         (N (_ BitVec 32))
         (O (_ BitVec 6))
         (P (_ BitVec 2))
         (Q (_ BitVec 2))
         (R (_ BitVec 1))
         (S (_ BitVec 1))
         (T (_ BitVec 6))
         (U (_ BitVec 6))
         (V (_ BitVec 2))
         (W (_ BitVec 2))
         (X (_ BitVec 6))
         (Y (_ BitVec 32))
         (Z (_ BitVec 2))
         (A1 (_ BitVec 1))
         (B1 (_ BitVec 8))
         (C1 (_ BitVec 2))
         (D1 (_ BitVec 2))
         (E1 (_ BitVec 2))
         (F1 (_ BitVec 6))
         (G1 (_ BitVec 6))
         (H1 (_ BitVec 2))
         (I1 (_ BitVec 2))
         (J1 (_ BitVec 6))
         (K1 (_ BitVec 6))
         (L1 (_ BitVec 2))
         (M1 (_ BitVec 2))
         (N1 (_ BitVec 32))
         (O1 (_ BitVec 2))
         (P1 (_ BitVec 5))
         (Q1 (_ BitVec 1))
         (R1 (_ BitVec 1))
         (S1 (_ BitVec 1))
         (T1 (_ BitVec 1))
         (U1 (_ BitVec 2))
         (V1 (_ BitVec 3))
         (W1 (_ BitVec 2))
         (X1 (_ BitVec 2))
         (Y1 (_ BitVec 32))
         (Z1 (_ BitVec 1))
         (A2 (_ BitVec 1))
         (B2 (_ BitVec 1))
         (C2 (_ BitVec 1))
         (D2 (_ BitVec 8))
         (E2 (_ BitVec 2))
         (F2 (_ BitVec 6))
         (G2 (_ BitVec 2))
         (H2 (_ BitVec 6))
         (I2 (_ BitVec 2))
         (J2 (_ BitVec 6))
         (K2 (_ BitVec 2))
         (L2 (_ BitVec 6))
         (M2 (_ BitVec 2))
         (N2 (_ BitVec 1))
         (O2 (_ BitVec 32))
         (P2 (_ BitVec 32))
         (Q2 (_ BitVec 6))
         (R2 (_ BitVec 6))
         (S2 (_ BitVec 2))
         (T2 (_ BitVec 2))
         (U2 (_ BitVec 6))
         (V2 (_ BitVec 6)))
  (! (let ((a!1 (or (not ((_ bit2bool 8) N))
                    (not (= ((_ extract 1 1) W) #b1))
                    (= ((_ extract 10 6) Y) #b11111)
                    (not ((_ bit2bool 7) N))
                    (not ((_ bit2bool 6) N))
                    (not ((_ bit2bool 10) N))
                    (not ((_ bit2bool 9) N))
                    (not (= J #b1))))
           (a!2 (or (= ((_ extract 26 22) N) #b11111)
                    (not (= ((_ extract 1 1) W) #b1))
                    (not ((_ bit2bool 26) Y))
                    (not ((_ bit2bool 23) Y))
                    (not ((_ bit2bool 22) Y))
                    (not ((_ bit2bool 25) Y))
                    (not ((_ bit2bool 24) Y))
                    (not (= J #b1))))
           (a!3 (or (not (= G #b111111))
                    (not (= ((_ extract 1 1) W) #b1))
                    (= O #b111111)
                    (not (= J #b1))))
           (a!4 (or (not (= ((_ extract 1 1) W) #b1))
                    (not (= O #b111111))
                    (= G #b111111)
                    (not (= J #b1))))
           (a!5 (or (= ((_ extract 5 0) N) #b111111)
                    (not ((_ bit2bool 4) Y))
                    (not ((_ bit2bool 1) Y))
                    (not (= ((_ extract 1 1) W) #b1))
                    (not ((_ bit2bool 5) Y))
                    (not ((_ bit2bool 3) Y))
                    (not ((_ bit2bool 2) Y))
                    (not ((_ bit2bool 0) Y))
                    (not (= J #b1))))
           (a!6 (or (not ((_ bit2bool 24) N))
                    (not (= ((_ extract 1 1) W) #b1))
                    (= ((_ extract 26 22) Y) #b11111)
                    (not ((_ bit2bool 26) N))
                    (not ((_ bit2bool 25) N))
                    (not ((_ bit2bool 23) N))
                    (not ((_ bit2bool 22) N))
                    (not (= J #b1))))
           (a!7 (or (not ((_ bit2bool 14) Y))
                    (not (= ((_ extract 1 1) W) #b1))
                    (= ((_ extract 15 11) N) #b11111)
                    (not ((_ bit2bool 15) Y))
                    (not ((_ bit2bool 13) Y))
                    (not ((_ bit2bool 11) Y))
                    (not ((_ bit2bool 12) Y))
                    (not (= J #b1))))
           (a!8 (or (= ((_ extract 31 29) N) #b111)
                    (not (= ((_ extract 1 1) W) #b1))
                    (not ((_ bit2bool 30) Y))
                    (not ((_ bit2bool 29) Y))
                    (not ((_ bit2bool 31) Y))
                    (not (= J #b1))))
           (a!9 (or (not (= ((_ extract 1 1) W) #b1))
                    (not ((_ bit2bool 26) Y))
                    (not ((_ bit2bool 27) Y))
                    (= ((_ extract 27 24) N) #xf)
                    (not ((_ bit2bool 25) Y))
                    (not ((_ bit2bool 24) Y))
                    (not (= J #b1))))
           (a!10 (or (not ((_ bit2bool 14) N))
                     (not ((_ bit2bool 11) N))
                     (not (= ((_ extract 1 1) W) #b1))
                     (= ((_ extract 14 10) Y) #b11111)
                     (not ((_ bit2bool 13) N))
                     (not ((_ bit2bool 10) N))
                     (not ((_ bit2bool 12) N))
                     (not (= J #b1))))
           (a!11 (or (not ((_ bit2bool 11) N))
                     (not ((_ bit2bool 8) N))
                     (not (= ((_ extract 1 1) W) #b1))
                     (= ((_ extract 11 8) Y) #xf)
                     (not ((_ bit2bool 10) N))
                     (not ((_ bit2bool 9) N))
                     (not (= J #b1))))
           (a!12 (or (not (= ((_ extract 1 1) W) #b1))
                     (= ((_ extract 30 26) Y) #b11111)
                     (not ((_ bit2bool 30) N))
                     (not ((_ bit2bool 29) N))
                     (not ((_ bit2bool 26) N))
                     (not ((_ bit2bool 27) N))
                     (not ((_ bit2bool 28) N))
                     (not (= J #b1))))
           (a!13 (or ((_ bit2bool 12) Y)
                     (not (= ((_ extract 1 1) W) #b1))
                     (not ((_ bit2bool 12) N))
                     (not (= J #b1))))
           (a!14 (or (= ((_ extract 14 10) N) #b11111)
                     (not ((_ bit2bool 14) Y))
                     (not (= ((_ extract 1 1) W) #b1))
                     (not ((_ bit2bool 13) Y))
                     (not ((_ bit2bool 11) Y))
                     (not ((_ bit2bool 10) Y))
                     (not ((_ bit2bool 12) Y))
                     (not (= J #b1))))
           (a!15 (or (not (= ((_ extract 1 1) W) #b1))
                     (= ((_ extract 31 28) N) #xf)
                     (not ((_ bit2bool 30) Y))
                     (not ((_ bit2bool 29) Y))
                     (not ((_ bit2bool 28) Y))
                     (not ((_ bit2bool 31) Y))
                     (not (= J #b1))))
           (a!16 (or (not ((_ bit2bool 3) N))
                     (not ((_ bit2bool 0) N))
                     (not (= ((_ extract 1 1) W) #b1))
                     (= ((_ extract 5 0) Y) #b111111)
                     (not ((_ bit2bool 5) N))
                     (not ((_ bit2bool 4) N))
                     (not ((_ bit2bool 2) N))
                     (not ((_ bit2bool 1) N))
                     (not (= J #b1))))
           (a!17 (or (not (= ((_ extract 1 1) W) #b1))
                     (not ((_ bit2bool 26) Y))
                     (= ((_ extract 30 26) N) #b11111)
                     (not ((_ bit2bool 27) Y))
                     (not ((_ bit2bool 30) Y))
                     (not ((_ bit2bool 29) Y))
                     (not ((_ bit2bool 28) Y))
                     (not (= J #b1))))
           (a!18 (or (not (= ((_ extract 1 1) W) #b1))
                     (= ((_ extract 7 5) Y) #b111)
                     (not ((_ bit2bool 7) N))
                     (not ((_ bit2bool 6) N))
                     (not ((_ bit2bool 5) N))
                     (not (= J #b1))))
           (a!19 (or (not (= ((_ extract 17 12) Y) #b111111))
                     (= ((_ extract 17 12) N) #b111111)
                     (not ((_ bit2bool 1) W))
                     (not (= J #b1))))
           (a!20 (or (= ((_ extract 29 24) N) #b011111)
                     (= ((_ extract 29 24) N) #b111111)
                     (not (= ((_ extract 1 1) W) #b1))
                     (not ((_ bit2bool 26) Y))
                     (not ((_ bit2bool 27) Y))
                     (not ((_ bit2bool 25) Y))
                     (not ((_ bit2bool 24) Y))
                     (not ((_ bit2bool 28) Y))
                     (not (= J #b1))))
           (a!21 (or (not (= ((_ extract 1 1) W) #b1))
                     (not ((_ bit2bool 27) Y))
                     (= ((_ extract 31 27) N) #b11111)
                     (not ((_ bit2bool 30) Y))
                     (not ((_ bit2bool 29) Y))
                     (not ((_ bit2bool 28) Y))
                     (not ((_ bit2bool 31) Y))
                     (not (= J #b1)))))
     (let ((a!22 (and (or (= ((_ extract 29 24) N) #b111111)
                          (not ((_ bit2bool 26) Y))
                          (not ((_ bit2bool 27) Y))
                          (not ((_ bit2bool 1) W))
                          (not ((_ bit2bool 25) Y))
                          (not ((_ bit2bool 24) Y))
                          (not ((_ bit2bool 29) Y))
                          (not ((_ bit2bool 28) Y))
                          (not (= J #b1)))
                      (= S #b1)
                      (or (= ((_ extract 10 6) N) #b11111)
                          (not ((_ bit2bool 1) W))
                          (not ((_ bit2bool 8) Y))
                          (not ((_ bit2bool 9) Y))
                          (not ((_ bit2bool 10) Y))
                          (not ((_ bit2bool 7) Y))
                          (not ((_ bit2bool 6) Y))
                          (not (= J #b1)))
                      a!1
                      a!2
                      a!3
                      a!4
                      a!5
                      a!6
                      a!7
                      a!8
                      a!9
                      a!10
                      (or (not ((_ bit2bool 31) N))
                          (not ((_ bit2bool 1) W))
                          (= ((_ extract 31 29) Y) #b111)
                          (not ((_ bit2bool 30) N))
                          (not ((_ bit2bool 29) N))
                          (not (= J #b1)))
                      (or (not ((_ bit2bool 14) N))
                          (not ((_ bit2bool 16) N))
                          (not ((_ bit2bool 1) W))
                          (= ((_ extract 17 12) Y) #b111111)
                          (not ((_ bit2bool 17) N))
                          (not ((_ bit2bool 15) N))
                          (not ((_ bit2bool 13) N))
                          (not ((_ bit2bool 12) N))
                          (not (= J #b1)))
                      (or (= ((_ extract 17 12) N) #b111111)
                          (= ((_ extract 17 12) N) #b011111)
                          (not ((_ bit2bool 14) Y))
                          (not ((_ bit2bool 16) Y))
                          (not ((_ bit2bool 1) W))
                          (not ((_ bit2bool 15) Y))
                          (not ((_ bit2bool 13) Y))
                          (not ((_ bit2bool 12) Y))
                          (not (= J #b1)))
                      a!11
                      (or (not ((_ bit2bool 19) N))
                          (not ((_ bit2bool 16) N))
                          (not ((_ bit2bool 1) W))
                          (= ((_ extract 21 16) Y) #b111111)
                          (not ((_ bit2bool 21) N))
                          (not ((_ bit2bool 20) N))
                          (not ((_ bit2bool 18) N))
                          (not ((_ bit2bool 17) N))
                          (not (= J #b1)))
                      a!12
                      a!13
                      a!14
                      a!15
                      (or (not ((_ bit2bool 24) N))
                          (not ((_ bit2bool 1) W))
                          (= ((_ extract 27 24) Y) #xf)
                          (not ((_ bit2bool 26) N))
                          (not ((_ bit2bool 25) N))
                          (not ((_ bit2bool 27) N))
                          (not (= J #b1)))
                      a!16
                      (or (not ((_ bit2bool 14) N))
                          (not ((_ bit2bool 11) N))
                          (not ((_ bit2bool 1) W))
                          (= ((_ extract 15 11) Y) #b11111)
                          (not ((_ bit2bool 15) N))
                          (not ((_ bit2bool 13) N))
                          (not ((_ bit2bool 12) N))
                          (not (= J #b1)))
                      (or (not ((_ bit2bool 24) N))
                          (not ((_ bit2bool 1) W))
                          (= ((_ extract 29 24) Y) #b111111)
                          (not ((_ bit2bool 29) N))
                          (not ((_ bit2bool 26) N))
                          (not ((_ bit2bool 25) N))
                          (not ((_ bit2bool 27) N))
                          (not ((_ bit2bool 28) N))
                          (not (= J #b1)))
                      (or (not ((_ bit2bool 1) W))
                          (= ((_ extract 11 8) N) #xf)
                          (not ((_ bit2bool 11) Y))
                          (not ((_ bit2bool 8) Y))
                          (not ((_ bit2bool 9) Y))
                          (not ((_ bit2bool 10) Y))
                          (not (= J #b1)))
                      a!17
                      a!18
                      (or (not ((_ bit2bool 14) N))
                          (not ((_ bit2bool 1) W))
                          (= ((_ extract 15 13) Y) #b111)
                          (not ((_ bit2bool 15) N))
                          (not ((_ bit2bool 13) N))
                          (not (= J #b1)))
                      (or (not ((_ bit2bool 31) N))
                          (not ((_ bit2bool 1) W))
                          (= ((_ extract 31 27) Y) #b11111)
                          (not ((_ bit2bool 30) N))
                          (not ((_ bit2bool 29) N))
                          (not ((_ bit2bool 27) N))
                          (not ((_ bit2bool 28) N))
                          (not (= J #b1)))
                      (or (not ((_ bit2bool 21) Y))
                          (not ((_ bit2bool 16) Y))
                          (= ((_ extract 21 16) N) #b111111)
                          (not ((_ bit2bool 1) W))
                          (not ((_ bit2bool 19) Y))
                          (not ((_ bit2bool 17) Y))
                          (not ((_ bit2bool 20) Y))
                          (not ((_ bit2bool 18) Y))
                          (not (= J #b1)))
                      a!19
                      (or (not ((_ bit2bool 21) Y))
                          (= ((_ extract 23 21) N) #b111)
                          (not ((_ bit2bool 1) W))
                          (not ((_ bit2bool 23) Y))
                          (not ((_ bit2bool 22) Y))
                          (not (= J #b1)))
                      (or (not ((_ bit2bool 1) W))
                          (= ((_ extract 23 21) Y) #b111)
                          (not ((_ bit2bool 21) N))
                          (not ((_ bit2bool 23) N))
                          (not ((_ bit2bool 22) N))
                          (not (= J #b1)))
                      (or (= ((_ extract 15 13) N) #b111)
                          (not ((_ bit2bool 14) Y))
                          (not ((_ bit2bool 1) W))
                          (not ((_ bit2bool 15) Y))
                          (not ((_ bit2bool 13) Y))
                          (not (= J #b1)))
                      (or (= ((_ extract 10 5) N) #b000111)
                          ((_ bit2bool 8) Y)
                          (not ((_ bit2bool 1) W))
                          ((_ bit2bool 9) Y)
                          ((_ bit2bool 10) Y)
                          (not ((_ bit2bool 5) Y))
                          (not ((_ bit2bool 7) Y))
                          (not ((_ bit2bool 6) Y))
                          (not (= J #b1)))
                      (or (= ((_ extract 7 5) N) #b111)
                          (not ((_ bit2bool 1) W))
                          (not ((_ bit2bool 5) Y))
                          (not ((_ bit2bool 7) Y))
                          (not ((_ bit2bool 6) Y))
                          (not (= J #b1)))
                      a!20
                      (or (not ((_ bit2bool 31) N))
                          (not ((_ bit2bool 1) W))
                          (= ((_ extract 31 28) Y) #xf)
                          (not ((_ bit2bool 30) N))
                          (not ((_ bit2bool 29) N))
                          (not ((_ bit2bool 28) N))
                          (not (= J #b1)))
                      (or (not ((_ bit2bool 14) Y))
                          (not ((_ bit2bool 1) W))
                          (= ((_ extract 15 12) N) #xf)
                          (not ((_ bit2bool 15) Y))
                          (not ((_ bit2bool 13) Y))
                          (not ((_ bit2bool 12) Y))
                          (not (= J #b1)))
                      a!21)))
       (= (INV!slice!1 A
                       B
                       C
                       D
                       E
                       F
                       G
                       H
                       I
                       J
                       K
                       L
                       M
                       N
                       O
                       P
                       Q
                       R
                       S
                       T
                       U
                       V
                       W
                       X
                       Y
                       Z
                       A1
                       B1
                       C1
                       D1
                       E1
                       F1
                       G1
                       H1
                       I1
                       J1
                       K1
                       L1
                       M1
                       N1
                       O1
                       P1
                       Q1
                       R1
                       S1
                       T1
                       U1
                       V1
                       W1
                       X1
                       Y1
                       Z1
                       A2
                       B2
                       C2
                       D2
                       E2
                       F2
                       G2
                       H2
                       I2
                       J2
                       K2
                       L2
                       M2
                       N2
                       O2
                       P2
                       Q2
                       R2
                       S2
                       T2
                       U2
                       V2)
          a!22)))
     :weight 0))
